p cnf 82 271
-3 -1 0
-3 -2 0
1 2 3 0
-3 4 -5 0
3 -4 -5 0
-3 -4 5 0
3 4 5 0
6 -4 0
6 -3 0
4 3 -6 0
6 -7 -8 0
-6 7 -8 0
6 7 8 0
-6 -7 8 0
-9 5 0
-9 8 0
-5 -8 9 0
12 -7 -13 0
-12 7 -13 0
12 7 13 0
-12 -7 13 0
-14 -11 0
-14 -13 0
11 13 14 0
-15 -10 0
-15 -14 0
10 14 15 0
16 13 -17 0
-16 -13 -17 0
16 -13 17 0
-16 13 17 0
-17 -18 -19 0
17 18 -19 0
-17 18 19 0
17 -18 19 0
-20 15 0
-20 19 0
-15 -19 20 0
-21 -2 0
-21 18 0
2 -18 21 0
-3 21 -22 0
3 -21 -22 0
-3 -21 22 0
3 21 22 0
-23 -11 0
-23 -18 0
11 18 23 0
-24 -16 0
-24 23 0
16 -23 24 0
-25 22 0
-25 24 0
-22 -24 25 0
1 17 -26 0
-1 -17 -26 0
1 -17 26 0
-1 17 26 0
-27 -25 0
-27 26 0
25 -26 27 0
28 -1 -29 0
-28 1 -29 0
28 1 29 0
-28 -1 29 0
-30 -29 0
-30 -13 0
29 13 30 0
-31 6 0
-31 -30 0
-6 30 31 0
-32 -28 0
-32 3 0
28 -3 32 0
-33 31 0
-33 32 0
-31 -32 33 0
-27 33 -34 0
27 -33 -34 0
-27 -33 34 0
27 33 34 0
35 -20 0
35 34 0
20 -34 -35 0
36 9 0
36 35 0
-9 -35 -36 0
-38 37 0
-38 -11 0
-37 11 38 0
-39 -38 0
-39 -28 0
38 28 39 0
40 -39 0
40 -24 0
39 24 -40 0
36 40 -41 0
-36 -40 -41 0
36 -40 41 0
-36 40 41 0
-42 -10 0
-42 29 0
10 -29 42 0
-43 -4 0
-43 -42 0
4 42 43 0
14 -10 -44 0
-14 10 -44 0
14 10 44 0
-14 -10 44 0
-44 11 -45 0
44 -11 -45 0
-44 -11 45 0
44 11 45 0
46 45 0
46 -3 0
-45 3 -46 0
48 -46 0
48 -47 0
46 47 -48 0
43 48 -49 0
-43 -48 -49 0
43 -48 49 0
-43 48 49 0
-12 -44 -50 0
12 44 -50 0
-12 44 50 0
12 -44 50 0
-51 49 0
-51 50 0
-49 -50 51 0
-52 -41 0
-52 51 0
41 -51 52 0
53 -38 0
53 -1 0
38 1 -53 0
54 -28 0
54 21 0
28 -21 -54 0
-55 53 0
-55 54 0
-53 -54 55 0
55 -12 -56 0
-55 12 -56 0
55 12 56 0
-55 -12 56 0
57 2 0
57 21 0
-2 -21 -57 0
-58 -17 0
-58 -18 0
17 18 58 0
-57 -58 -59 0
57 58 -59 0
-57 58 59 0
57 -58 59 0
60 24 0
60 21 0
-24 -21 -60 0
-61 59 0
-61 -60 0
-59 60 61 0
-62 56 0
-62 -61 0
-56 61 62 0
-64 11 0
-64 -16 0
-11 16 64 0
65 63 0
65 -64 0
-63 64 -65 0
66 37 0
66 65 0
-37 -65 -66 0
-67 -62 0
-67 66 0
62 -66 67 0
-68 11 0
-68 -4 0
-11 4 68 0
69 39 0
69 -68 0
-39 68 -69 0
70 67 0
70 69 0
-67 -69 -70 0
39 18 -71 0
-39 -18 -71 0
39 -18 71 0
-39 18 71 0
72 7 0
72 -10 0
-7 10 -72 0
-38 72 -73 0
38 -72 -73 0
-38 -72 73 0
38 72 73 0
-74 71 0
-74 73 0
-71 -73 74 0
-64 4 -75 0
64 -4 -75 0
-64 -4 75 0
64 4 75 0
14 44 -77 0
-14 -44 -77 0
14 -44 77 0
-14 44 77 0
-78 76 0
-78 -77 0
-76 77 78 0
-79 -75 0
-79 -78 0
75 78 79 0
-80 74 0
-80 79 0
-74 -79 80 0
-81 70 0
-81 -80 0
-70 80 81 0
52 -81 -82 0
-52 81 -82 0
52 81 82 0
-52 -81 82 0
-40 -80 -3 10 0
3 -8 73 -14 65 0
-4 -36 -29 47 75 -58 0
-48 73 22 -64 -10 0
75 -35 44 -74 10 0
79 -35 82 -56 4 -17 0
-18 -76 0
-19 -13 0
31 62 -58 0
-5 20 -10 -28 -3 0
40 -28 0
42 1 81 26 0
-22 60 -40 -27 -14 0
-23 -10 -42 0
-18 56 42 0
-28 43 75 0
-33 0
38 -15 -17 52 -72 0
-11 37 0
36 -40 0
-71 -67 15 -51 -62 0
82 -9 -19 0
-31 -58 37 0
-13 -49 -66 0
-58 18 78 39 20 0
53 -82 79 -29 76 0
21 52 60 0
-47 -12 0
55 -62 -67 -75 64 0
-39 50 -51 0
21 -24 56 -41 79 0
38 -50 28 33 2 0
3 -68 -82 0
-10 42 76 31 0
-69 59 -39 0
74 58 25 53 0
-69 54 33 -72 -45 0
-21 73 -59 0
64 28 0
26 -29 -11 0
54 -53 -27 -55 -50 0
1 -50 5 56 69 57 0
-50 -12 55 -61 -66 0
42 -75 0
-61 12 -65 72 22 4 0
82 0
